p cnf 23 11
e 1 2 0
a 3 0
e 4 0
a 5 0
e 6 0
a 7 0
e 8 9 10 11 0
a 12 13 0
e 14 15 16 0
a 17 18 19 0
e 20 0
a 21 22 23 0
-7 -12 -14 -20 -8 0
-23 -3 0
-20 1 19 21 -3 0
13 22 0
-19 -22 18 0
11 19 20 0
-14 -19 6 -3 0
21 12 0
23 -15 17 22 21 0
-16 -19 8 21 0
-15 -8 23 0
